NAME : KROE99B
TYPE : PDTSP
DIMENSION : 99
EDGE_WEIGHT_TYPE : EUC_2D
NODE_COORD_SECTION
1 3477 949
2 91 1732
3 3972 329
4 198 1632
5 1806 733
6 538 1023
7 3430 1088
8 2186 766
9 1513 1646
10 2143 1611
11 53 1657
12 3404 1307
13 1034 1344
14 2823 376
15 3104 1931
16 3232 324
17 2790 1457
18 374 9
19 741 146
20 3083 1938
21 3502 1067
22 1280 237
23 3326 1846
24 217 38
25 2503 1172
26 3527 41
27 739 1850
28 3548 1999
29 48 154
30 1419 872
31 1689 1223
32 3468 1404
33 1628 253
34 382 872
35 3029 1242
36 285 1029
37 1782 93
38 1067 371
39 2849 1214
40 920 1835
41 1741 712
42 876 220
43 2753 283
44 2609 1286
45 3941 258
46 3613 523
47 1754 559
48 2916 1724
49 2445 1820
50 3825 1101
51 2779 435
52 201 693
53 2502 1274
54 765 833
55 3105 1823
56 1937 1400
57 3364 1498
58 3702 1624
59 2164 1874
60 3019 189
61 3098 1594
62 3239 1376
63 3359 1693
64 2081 1011
65 1398 1100
66 618 1953
67 1878 59
68 3803 886
69 397 1217
70 3035 152
71 2502 146
72 3230 380
73 3479 1023
74 958 1670
75 3423 1241
76 78 1066
77 96 691
78 3431 78
79 2053 1461
80 3048 1
81 571 1711
82 3393 782
83 2835 1472
84 144 1185
85 923 108
86 989 1997
87 3061 1211
88 2977 39
89 1668 658
90 878 715
91 678 1599
92 1086 868
93 640 110
94 3551 1673
95 106 1267
96 2243 1332
97 3796 1401
98 2643 1320
99 48 267
PICKUP_AND_DELIVERY_SECTION
1 0 0 0 0 0 0
2 0 0 0 0 13 0
3 0 0 0 0 39 0
4 0 0 0 0 0 86
5 0 0 0 0 0 10
6 0 0 0 0 0 52
7 0 0 0 0 0 25
8 0 0 0 0 51 0
9 0 0 0 0 40 0
10 0 0 0 0 5 0
11 0 0 0 0 91 0
12 0 0 0 0 57 0
13 0 0 0 0 0 2
14 0 0 0 0 0 71
15 0 0 0 0 79 0
16 0 0 0 0 0 65
17 0 0 0 0 55 0
18 0 0 0 0 77 0
19 0 0 0 0 0 36
20 0 0 0 0 43 0
21 0 0 0 0 0 72
22 0 0 0 0 92 0
23 0 0 0 0 0 97
24 0 0 0 0 68 0
25 0 0 0 0 7 0
26 0 0 0 0 0 45
27 0 0 0 0 0 93
28 0 0 0 0 75 0
29 0 0 0 0 85 0
30 0 0 0 0 0 88
31 0 0 0 0 96 0
32 0 0 0 0 0 94
33 0 0 0 0 0 42
34 0 0 0 0 53 0
35 0 0 0 0 0 49
36 0 0 0 0 19 0
37 0 0 0 0 67 0
38 0 0 0 0 0 47
39 0 0 0 0 0 3
40 0 0 0 0 0 9
41 0 0 0 0 89 0
42 0 0 0 0 33 0
43 0 0 0 0 0 20
44 0 0 0 0 98 0
45 0 0 0 0 26 0
46 0 0 0 0 73 0
47 0 0 0 0 38 0
48 0 0 0 0 64 0
49 0 0 0 0 35 0
50 0 0 0 0 0 82
51 0 0 0 0 0 8
52 0 0 0 0 6 0
53 0 0 0 0 0 34
54 0 0 0 0 0 90
55 0 0 0 0 0 17
56 0 0 0 0 0 59
57 0 0 0 0 0 12
58 0 0 0 0 61 0
59 0 0 0 0 56 0
60 0 0 0 0 70 0
61 0 0 0 0 0 58
62 0 0 0 0 63 0
63 0 0 0 0 0 62
64 0 0 0 0 0 48
65 0 0 0 0 16 0
66 0 0 0 0 0 95
67 0 0 0 0 0 37
68 0 0 0 0 0 24
69 0 0 0 0 0 74
70 0 0 0 0 0 60
71 0 0 0 0 14 0
72 0 0 0 0 21 0
73 0 0 0 0 0 46
74 0 0 0 0 69 0
75 0 0 0 0 0 28
76 0 0 0 0 99 0
77 0 0 0 0 0 18
78 0 0 0 0 0 80
79 0 0 0 0 0 15
80 0 0 0 0 78 0
81 0 0 0 0 0 84
82 0 0 0 0 50 0
83 0 0 0 0 87 0
84 0 0 0 0 81 0
85 0 0 0 0 0 29
86 0 0 0 0 4 0
87 0 0 0 0 0 83
88 0 0 0 0 30 0
89 0 0 0 0 0 41
90 0 0 0 0 54 0
91 0 0 0 0 0 11
92 0 0 0 0 0 22
93 0 0 0 0 27 0
94 0 0 0 0 32 0
95 0 0 0 0 66 0
96 0 0 0 0 0 31
97 0 0 0 0 23 0
98 0 0 0 0 0 44
99 0 0 0 0 0 76
DEPOT_SECTION
1 
-1
EOF
